\ Model coloration
\ LP format - for model browsing. Use MPS format to capture full model detail.
Minimize
  x,0,0, + x,0,1, + x,0,2, + x,0,3, + x,0,4, + x,1,0, + x,1,1, + x,1,2,
   + x,1,3, + x,1,4, + x,2,0, + x,2,1, + x,2,2, + x,2,3, + x,2,4, + x,3,0,
   + x,3,1, + x,3,2, + x,3,3, + x,3,4, + x,4,0, + x,4,1, + x,4,2, + x,4,3,
   + x,4,4,
Subject To
 C_0/mutuelle/L_0: y,0,0,0, + y,0,1,0, + y,0,2,0, + y,0,3,0, + y,0,4,0,
   = 1
 C_1/mutuelle/L_1: y,1,0,0, + y,1,1,0, + y,1,2,0, + y,1,3,0, + y,1,4,0,
   = 1
 C_2/mutuelle/L_1: y,1,0,1, + y,1,1,1, + y,1,2,1, + y,1,3,1, + y,1,4,1,
   = 1
 C_3/mutuelle/L_1: y,1,0,2, + y,1,1,2, + y,1,2,2, + y,1,3,2, + y,1,4,2,
   = 1
 C_4/mutuelle/L_2: y,2,0,0, + y,2,1,0, + y,2,2,0, + y,2,3,0, + y,2,4,0,
   = 1
 C_5/mutuelle/L_3: y,3,0,0, + y,3,1,0, + y,3,2,0, + y,3,3,0, + y,3,4,0,
   = 1
 C_6/mutuelle/L_3: y,3,0,1, + y,3,1,1, + y,3,2,1, + y,3,3,1, + y,3,4,1,
   = 1
 C_7/mutuelle/L_4: y,4,0,0, + y,4,1,0, + y,4,2,0, + y,4,3,0, + y,4,4,0,
   = 1
 C_8/mutuelle/L_4: y,4,0,1, + y,4,1,1, + y,4,2,1, + y,4,3,1, + y,4,4,1,
   = 1
 C_9/Q10/L_0: - x,0,0, - x,0,1, - x,0,2, + 3 y,0,0,0, <= 0
 C_10/ordre/C_0: 2 z,0,0,0, + z,0,0,1, + z,1,0,1, <= 2
 C_11/Q10/C_0: - x,0,0, + z,0,0,0, <= 0
 C_12/Q10/C_0: - x,0,0, + z,0,0,1, <= 0
 C_13/Q10/L_0: - x,0,1, - x,0,2, - x,0,3, + 3 y,0,1,0, <= 0
 C_14/ordre/C_1: 2 z,0,1,0, + z,0,1,1, + z,1,1,1, <= 2
 C_15/Q10/C_1: - x,0,1, + z,0,1,0, <= 0
 C_16/Q10/C_1: - x,0,1, - x,1,1, + 2 z,0,1,1, <= 0
 C_17/Q10/L_0: - x,0,2, - x,0,3, - x,0,4, + 3 y,0,2,0, <= 0
 C_18/Q10/C_2: - x,0,2, - x,1,2, - x,2,2, + 3 z,0,2,0, <= 0
 C_19/Q10/L_0: - x,0,3, - x,0,4, + 3 y,0,3,0, <= 0
 C_20/ordre/C_3: 2 z,0,3,0, + z,0,3,1, + z,1,3,1, <= 2
 C_21/Q10/C_3: - x,0,3, + z,0,3,0, <= 0
 C_22/Q10/C_3: - x,0,3, - x,1,3, + 2 z,0,3,1, <= 0
 C_23/Q10/L_0: - x,0,4, + 3 y,0,4,0, <= 0
 C_24/ordre/C_4: 2 z,0,4,0, + z,0,4,1, + z,1,4,1, <= 2
 C_25/Q10/C_4: - x,0,4, + z,0,4,0, <= 0
 C_26/Q10/C_4: - x,0,4, + z,0,4,1, <= 0
 C_27/ordre/L_1: 4 y,1,0,0, + y,1,0,1, + y,1,0,2, + y,1,1,1, + y,1,1,2,
   <= 4
 C_28/Q10/L_1: - x,1,0, + y,1,0,0, <= 0
 C_29/ordre/L_1: 2 y,1,0,1, + y,1,0,2, + y,1,1,2, <= 2
 C_30/Q10/L_1: - x,1,0, + y,1,0,1, <= 0
 C_31/Q10/L_1: - x,1,0, + y,1,0,2, <= 0
 C_32/ordre/C_0: z,0,0,1, + 3 z,1,0,0, + z,1,0,1, + z,2,0,1, <= 3
 C_33/Q10/C_0: - x,1,0, + z,1,0,0, <= 0
 C_34/Q10/C_0: - x,1,0, + z,1,0,1, <= 0
 C_35/ordre/L_1: y,1,0,1, + y,1,0,2, + 6 y,1,1,0, + y,1,1,1, + y,1,1,2,
   + y,1,2,1, + y,1,2,2, <= 6
 C_36/Q10/L_1: - x,1,1, + y,1,1,0, <= 0
 C_37/ordre/L_1: y,1,0,2, + 3 y,1,1,1, + y,1,1,2, + y,1,2,2, <= 3
 C_38/Q10/L_1: - x,1,1, + y,1,1,1, <= 0
 C_39/Q10/L_1: - x,1,1, + y,1,1,2, <= 0
 C_40/ordre/C_1: z,0,1,1, + 3 z,1,1,0, + z,1,1,1, + z,2,1,1, <= 3
 C_41/Q10/C_1: - x,1,1, + z,1,1,0, <= 0
 C_42/Q10/C_1: - x,1,1, - x,2,1, + 2 z,1,1,1, <= 0
 C_43/ordre/L_1: y,1,0,1, + y,1,0,2, + y,1,1,1, + y,1,1,2, + 8 y,1,2,0,
   + y,1,2,1, + y,1,2,2, + y,1,3,1, + y,1,3,2, <= 8
 C_44/Q10/L_1: - x,1,2, + y,1,2,0, <= 0
 C_45/ordre/L_1: y,1,0,2, + y,1,1,2, + 4 y,1,2,1, + y,1,2,2, + y,1,3,2,
   <= 4
 C_46/Q10/L_1: - x,1,2, + y,1,2,1, <= 0
 C_47/Q10/L_1: - x,1,2, + y,1,2,2, <= 0
 C_48/Q10/C_2: - x,1,2, - x,2,2, - x,3,2, + 3 z,1,2,0, <= 0
 C_49/ordre/L_1: y,1,0,1, + y,1,0,2, + y,1,1,1, + y,1,1,2, + y,1,2,1,
   + y,1,2,2, + 10 y,1,3,0, + y,1,3,1, + y,1,3,2, + y,1,4,1, + y,1,4,2,
   <= 10
 C_50/Q10/L_1: - x,1,3, + y,1,3,0, <= 0
 C_51/ordre/L_1: y,1,0,2, + y,1,1,2, + y,1,2,2, + 5 y,1,3,1, + y,1,3,2,
   + y,1,4,2, <= 5
 C_52/Q10/L_1: - x,1,3, + y,1,3,1, <= 0
 C_53/Q10/L_1: - x,1,3, + y,1,3,2, <= 0
 C_54/ordre/C_3: z,0,3,1, + 3 z,1,3,0, + z,1,3,1, + z,2,3,1, <= 3
 C_55/Q10/C_3: - x,1,3, + z,1,3,0, <= 0
 C_56/Q10/C_3: - x,1,3, - x,2,3, + 2 z,1,3,1, <= 0
 C_57/ordre/L_1: y,1,0,1, + y,1,0,2, + y,1,1,1, + y,1,1,2, + y,1,2,1,
   + y,1,2,2, + y,1,3,1, + y,1,3,2, + 10 y,1,4,0, + y,1,4,1, + y,1,4,2,
   <= 10
 C_58/Q10/L_1: - x,1,4, + y,1,4,0, <= 0
 C_59/ordre/L_1: y,1,0,2, + y,1,1,2, + y,1,2,2, + y,1,3,2, + 5 y,1,4,1,
   + y,1,4,2, <= 5
 C_60/Q10/L_1: - x,1,4, + y,1,4,1, <= 0
 C_61/Q10/L_1: - x,1,4, + y,1,4,2, <= 0
 C_62/ordre/C_4: z,0,4,1, + 3 z,1,4,0, + z,1,4,1, + z,2,4,1, <= 3
 C_63/Q10/C_4: - x,1,4, + z,1,4,0, <= 0
 C_64/Q10/C_4: - x,1,4, + z,1,4,1, <= 0
 C_65/Q10/L_2: - x,2,0, - x,2,1, - x,2,2, + 3 y,2,0,0, <= 0
 C_66/ordre/C_0: z,0,0,1, + z,1,0,1, + 4 z,2,0,0, + z,2,0,1, + z,3,0,1,
   <= 4
 C_67/Q10/C_0: - x,2,0, + z,2,0,0, <= 0
 C_68/Q10/C_0: - x,2,0, + z,2,0,1, <= 0
 C_69/Q10/L_2: - x,2,1, - x,2,2, - x,2,3, + 3 y,2,1,0, <= 0
 C_70/ordre/C_1: z,0,1,1, + z,1,1,1, + 4 z,2,1,0, + z,2,1,1, + z,3,1,1,
   <= 4
 C_71/Q10/C_1: - x,2,1, + z,2,1,0, <= 0
 C_72/Q10/C_1: - x,2,1, - x,3,1, + 2 z,2,1,1, <= 0
 C_73/Q10/L_2: - x,2,2, - x,2,3, - x,2,4, + 3 y,2,2,0, <= 0
 C_74/Q10/C_2: - x,2,2, - x,3,2, - x,4,2, + 3 z,2,2,0, <= 0
 C_75/Q10/L_2: - x,2,3, - x,2,4, + 3 y,2,3,0, <= 0
 C_76/ordre/C_3: z,0,3,1, + z,1,3,1, + 4 z,2,3,0, + z,2,3,1, + z,3,3,1,
   <= 4
 C_77/Q10/C_3: - x,2,3, + z,2,3,0, <= 0
 C_78/Q10/C_3: - x,2,3, - x,3,3, + 2 z,2,3,1, <= 0
 C_79/Q10/L_2: - x,2,4, + 3 y,2,4,0, <= 0
 C_80/ordre/C_4: z,0,4,1, + z,1,4,1, + 4 z,2,4,0, + z,2,4,1, + z,3,4,1,
   <= 4
 C_81/Q10/C_4: - x,2,4, + z,2,4,0, <= 0
 C_82/Q10/C_4: - x,2,4, + z,2,4,1, <= 0
 C_83/ordre/L_3: 2 y,3,0,0, + y,3,0,1, + y,3,1,1, <= 2
 C_84/Q10/L_3: - x,3,0, + y,3,0,0, <= 0
 C_85/Q10/L_3: - x,3,0, + y,3,0,1, <= 0
 C_86/ordre/C_0: z,0,0,1, + z,1,0,1, + z,2,0,1, + 5 z,3,0,0, + z,3,0,1,
   + z,4,0,1, <= 5
 C_87/Q10/C_0: - x,3,0, + z,3,0,0, <= 0
 C_88/Q10/C_0: - x,3,0, + z,3,0,1, <= 0
 C_89/ordre/L_3: y,3,0,1, + 3 y,3,1,0, + y,3,1,1, + y,3,2,1, <= 3
 C_90/Q10/L_3: - x,3,1, + y,3,1,0, <= 0
 C_91/Q10/L_3: - x,3,1, + y,3,1,1, <= 0
 C_92/ordre/C_1: z,0,1,1, + z,1,1,1, + z,2,1,1, + 5 z,3,1,0, + z,3,1,1,
   + z,4,1,1, <= 5
 C_93/Q10/C_1: - x,3,1, + z,3,1,0, <= 0
 C_94/Q10/C_1: - x,3,1, - x,4,1, + 2 z,3,1,1, <= 0
 C_95/ordre/L_3: y,3,0,1, + y,3,1,1, + 4 y,3,2,0, + y,3,2,1, + y,3,3,1,
   <= 4
 C_96/Q10/L_3: - x,3,2, + y,3,2,0, <= 0
 C_97/Q10/L_3: - x,3,2, + y,3,2,1, <= 0
 C_98/Q10/C_2: - x,3,2, - x,4,2, + 3 z,3,2,0, <= 0
 C_99/ordre/L_3: y,3,0,1, + y,3,1,1, + y,3,2,1, + 5 y,3,3,0, + y,3,3,1,
   + y,3,4,1, <= 5
 C_100/Q10/L_3: - x,3,3, + y,3,3,0, <= 0
 C_101/Q10/L_3: - x,3,3, + y,3,3,1, <= 0
 C_102/ordre/C_3: z,0,3,1, + z,1,3,1, + z,2,3,1, + 5 z,3,3,0, + z,3,3,1,
   + z,4,3,1, <= 5
 C_103/Q10/C_3: - x,3,3, + z,3,3,0, <= 0
 C_104/Q10/C_3: - x,3,3, - x,4,3, + 2 z,3,3,1, <= 0
 C_105/ordre/L_3: y,3,0,1, + y,3,1,1, + y,3,2,1, + y,3,3,1, + 5 y,3,4,0,
   + y,3,4,1, <= 5
 C_106/Q10/L_3: - x,3,4, + y,3,4,0, <= 0
 C_107/Q10/L_3: - x,3,4, + y,3,4,1, <= 0
 C_108/ordre/C_4: z,0,4,1, + z,1,4,1, + z,2,4,1, + 5 z,3,4,0, + z,3,4,1,
   + z,4,4,1, <= 5
 C_109/Q10/C_4: - x,3,4, + z,3,4,0, <= 0
 C_110/Q10/C_4: - x,3,4, + z,3,4,1, <= 0
 C_111/ordre/L_4: 2 y,4,0,0, + y,4,0,1, + y,4,1,1, <= 2
 C_112/Q10/L_4: - x,4,0, + y,4,0,0, <= 0
 C_113/Q10/L_4: - x,4,0, + y,4,0,1, <= 0
 C_114/ordre/C_0: z,0,0,1, + z,1,0,1, + z,2,0,1, + z,3,0,1, + 5 z,4,0,0,
   + z,4,0,1, <= 5
 C_115/Q10/C_0: - x,4,0, + z,4,0,0, <= 0
 C_116/Q10/C_0: - x,4,0, + z,4,0,1, <= 0
 C_117/ordre/L_4: y,4,0,1, + 3 y,4,1,0, + y,4,1,1, + y,4,2,1, <= 3
 C_118/Q10/L_4: - x,4,1, + y,4,1,0, <= 0
 C_119/Q10/L_4: - x,4,1, + y,4,1,1, <= 0
 C_120/ordre/C_1: z,0,1,1, + z,1,1,1, + z,2,1,1, + z,3,1,1, + 5 z,4,1,0,
   + z,4,1,1, <= 5
 C_121/Q10/C_1: - x,4,1, + z,4,1,0, <= 0
 C_122/Q10/C_1: - x,4,1, + 2 z,4,1,1, <= 0
 C_123/ordre/L_4: y,4,0,1, + y,4,1,1, + 4 y,4,2,0, + y,4,2,1, + y,4,3,1,
   <= 4
 C_124/Q10/L_4: - x,4,2, + y,4,2,0, <= 0
 C_125/Q10/L_4: - x,4,2, + y,4,2,1, <= 0
 C_126/Q10/C_2: - x,4,2, + 3 z,4,2,0, <= 0
 C_127/ordre/L_4: y,4,0,1, + y,4,1,1, + y,4,2,1, + 5 y,4,3,0, + y,4,3,1,
   + y,4,4,1, <= 5
 C_128/Q10/L_4: - x,4,3, + y,4,3,0, <= 0
 C_129/Q10/L_4: - x,4,3, + y,4,3,1, <= 0
 C_130/ordre/C_3: z,0,3,1, + z,1,3,1, + z,2,3,1, + z,3,3,1, + 5 z,4,3,0,
   + z,4,3,1, <= 5
 C_131/Q10/C_3: - x,4,3, + z,4,3,0, <= 0
 C_132/Q10/C_3: - x,4,3, + 2 z,4,3,1, <= 0
 C_133/ordre/L_4: y,4,0,1, + y,4,1,1, + y,4,2,1, + y,4,3,1, + 5 y,4,4,0,
   + y,4,4,1, <= 5
 C_134/Q10/L_4: - x,4,4, + y,4,4,0, <= 0
 C_135/Q10/L_4: - x,4,4, + y,4,4,1, <= 0
 C_136/ordre/C_4: z,0,4,1, + z,1,4,1, + z,2,4,1, + z,3,4,1, + 5 z,4,4,0,
   + z,4,4,1, <= 5
 C_137/Q10/C_4: - x,4,4, + z,4,4,0, <= 0
 C_138/Q10/C_4: - x,4,4, + z,4,4,1, <= 0
 C_139/mutuelle/C_0: z,0,0,0, + z,1,0,0, + z,2,0,0, + z,3,0,0, + z,4,0,0,
   = 1
 C_140/mutuelle/C_0: z,0,0,1, + z,1,0,1, + z,2,0,1, + z,3,0,1, + z,4,0,1,
   = 1
 C_141/mutuelle/C_1: z,0,1,0, + z,1,1,0, + z,2,1,0, + z,3,1,0, + z,4,1,0,
   = 1
 C_142/mutuelle/C_1: z,0,1,1, + z,1,1,1, + z,2,1,1, + z,3,1,1, + z,4,1,1,
   = 1
 C_143/mutuelle/C_2: z,0,2,0, + z,1,2,0, + z,2,2,0, + z,3,2,0, + z,4,2,0,
   = 1
 C_144/mutuelle/C_3: z,0,3,0, + z,1,3,0, + z,2,3,0, + z,3,3,0, + z,4,3,0,
   = 1
 C_145/mutuelle/C_3: z,0,3,1, + z,1,3,1, + z,2,3,1, + z,3,3,1, + z,4,3,1,
   = 1
 C_146/mutuelle/C_4: z,0,4,0, + z,1,4,0, + z,2,4,0, + z,3,4,0, + z,4,4,0,
   = 1
 C_147/mutuelle/C_4: z,0,4,1, + z,1,4,1, + z,2,4,1, + z,3,4,1, + z,4,4,1,
   = 1
Bounds
Binaries
 x,0,0, x,0,1, x,0,2, x,0,3, x,0,4, x,1,0, x,1,1, x,1,2, x,1,3, x,1,4,
 x,2,0, x,2,1, x,2,2, x,2,3, x,2,4, x,3,0, x,3,1, x,3,2, x,3,3, x,3,4,
 x,4,0, x,4,1, x,4,2, x,4,3, x,4,4, y,0,0,0, y,0,1,0, y,0,2,0, y,0,3,0,
 y,0,4,0, y,1,0,0, y,1,0,1, y,1,0,2, y,1,1,0, y,1,1,1, y,1,1,2, y,1,2,0,
 y,1,2,1, y,1,2,2, y,1,3,0, y,1,3,1, y,1,3,2, y,1,4,0, y,1,4,1, y,1,4,2,
 y,2,0,0, y,2,1,0, y,2,2,0, y,2,3,0, y,2,4,0, y,3,0,0, y,3,0,1, y,3,1,0,
 y,3,1,1, y,3,2,0, y,3,2,1, y,3,3,0, y,3,3,1, y,3,4,0, y,3,4,1, y,4,0,0,
 y,4,0,1, y,4,1,0, y,4,1,1, y,4,2,0, y,4,2,1, y,4,3,0, y,4,3,1, y,4,4,0,
 y,4,4,1, z,0,0,0, z,0,0,1, z,1,0,0, z,1,0,1, z,2,0,0, z,2,0,1, z,3,0,0,
 z,3,0,1, z,4,0,0, z,4,0,1, z,0,1,0, z,0,1,1, z,1,1,0, z,1,1,1, z,2,1,0,
 z,2,1,1, z,3,1,0, z,3,1,1, z,4,1,0, z,4,1,1, z,0,2,0, z,1,2,0, z,2,2,0,
 z,3,2,0, z,4,2,0, z,0,3,0, z,0,3,1, z,1,3,0, z,1,3,1, z,2,3,0, z,2,3,1,
 z,3,3,0, z,3,3,1, z,4,3,0, z,4,3,1, z,0,4,0, z,0,4,1, z,1,4,0, z,1,4,1,
 z,2,4,0, z,2,4,1, z,3,4,0, z,3,4,1, z,4,4,0, z,4,4,1,
End
